NAME: sim-grid-A-25
TYPE: TSP
COMMENT: Semi-regular Grid
DIMENSION: 25
EDGE_WEIGHT_TYPE: EUC_2D
NODE_COORD_SECTION
1 50 100
2 450 100
3 650 100
4 1450 100
5 50 200
6 250 200
7 450 200
8 1050 200
9 1250 200
10 450 400
11 650 400
12 950 400
13 150 500
14 750 500
15 1250 500
16 100 700
17 1000 700
18 1150 700
19 1300 700
20 1450 700
21 100 800
22 400 800
23 850 800
24 1000 800
25 1450 800
EOF
